p edge 256 1024
p 1 2
p 1 3
p 1 5
p 1 9
p 1 17
p 1 33
p 1 65
p 1 129
p 2 4
p 2 6
p 2 10
p 2 18
p 2 34
p 2 66
p 2 130
p 3 4
p 3 7
p 3 11
p 3 19
p 3 35
p 3 67
p 3 131
p 4 8
p 4 12
p 4 20
p 4 36
p 4 68
p 4 132
p 5 6
p 5 7
p 5 13
p 5 21
p 5 37
p 5 69
p 5 133
p 6 8
p 6 14
p 6 22
p 6 38
p 6 70
p 6 134
p 7 8
p 7 15
p 7 23
p 7 39
p 7 71
p 7 135
p 8 16
p 8 24
p 8 40
p 8 72
p 8 136
p 9 10
p 9 11
p 9 13
p 9 25
p 9 41
p 9 73
p 9 137
p 10 12
p 10 14
p 10 26
p 10 42
p 10 74
p 10 138
p 11 12
p 11 15
p 11 27
p 11 43
p 11 75
p 11 139
p 12 16
p 12 28
p 12 44
p 12 76
p 12 140
p 13 14
p 13 15
p 13 29
p 13 45
p 13 77
p 13 141
p 14 16
p 14 30
p 14 46
p 14 78
p 14 142
p 15 16
p 15 31
p 15 47
p 15 79
p 15 143
p 16 32
p 16 48
p 16 80
p 16 144
p 17 18
p 17 19
p 17 21
p 17 25
p 17 49
p 17 81
p 17 145
p 18 20
p 18 22
p 18 26
p 18 50
p 18 82
p 18 146
p 19 20
p 19 23
p 19 27
p 19 51
p 19 83
p 19 147
p 20 24
p 20 28
p 20 52
p 20 84
p 20 148
p 21 22
p 21 23
p 21 29
p 21 53
p 21 85
p 21 149
p 22 24
p 22 30
p 22 54
p 22 86
p 22 150
p 23 24
p 23 31
p 23 55
p 23 87
p 23 151
p 24 32
p 24 56
p 24 88
p 24 152
p 25 26
p 25 27
p 25 29
p 25 57
p 25 89
p 25 153
p 26 28
p 26 30
p 26 58
p 26 90
p 26 154
p 27 28
p 27 31
p 27 59
p 27 91
p 27 155
p 28 32
p 28 60
p 28 92
p 28 156
p 29 30
p 29 31
p 29 61
p 29 93
p 29 157
p 30 32
p 30 62
p 30 94
p 30 158
p 31 32
p 31 63
p 31 95
p 31 159
p 32 64
p 32 96
p 32 160
p 33 34
p 33 35
p 33 37
p 33 41
p 33 49
p 33 97
p 33 161
p 34 36
p 34 38
p 34 42
p 34 50
p 34 98
p 34 162
p 35 36
p 35 39
p 35 43
p 35 51
p 35 99
p 35 163
p 36 40
p 36 44
p 36 52
p 36 100
p 36 164
p 37 38
p 37 39
p 37 45
p 37 53
p 37 101
p 37 165
p 38 40
p 38 46
p 38 54
p 38 102
p 38 166
p 39 40
p 39 47
p 39 55
p 39 103
p 39 167
p 40 48
p 40 56
p 40 104
p 40 168
p 41 42
p 41 43
p 41 45
p 41 57
p 41 105
p 41 169
p 42 44
p 42 46
p 42 58
p 42 106
p 42 170
p 43 44
p 43 47
p 43 59
p 43 107
p 43 171
p 44 48
p 44 60
p 44 108
p 44 172
p 45 46
p 45 47
p 45 61
p 45 109
p 45 173
p 46 48
p 46 62
p 46 110
p 46 174
p 47 48
p 47 63
p 47 111
p 47 175
p 48 64
p 48 112
p 48 176
p 49 50
p 49 51
p 49 53
p 49 57
p 49 113
p 49 177
p 50 52
p 50 54
p 50 58
p 50 114
p 50 178
p 51 52
p 51 55
p 51 59
p 51 115
p 51 179
p 52 56
p 52 60
p 52 116
p 52 180
p 53 54
p 53 55
p 53 61
p 53 117
p 53 181
p 54 56
p 54 62
p 54 118
p 54 182
p 55 56
p 55 63
p 55 119
p 55 183
p 56 64
p 56 120
p 56 184
p 57 58
p 57 59
p 57 61
p 57 121
p 57 185
p 58 60
p 58 62
p 58 122
p 58 186
p 59 60
p 59 63
p 59 123
p 59 187
p 60 64
p 60 124
p 60 188
p 61 62
p 61 63
p 61 125
p 61 189
p 62 64
p 62 126
p 62 190
p 63 64
p 63 127
p 63 191
p 64 128
p 64 192
p 65 66
p 65 67
p 65 69
p 65 73
p 65 81
p 65 97
p 65 193
p 66 68
p 66 70
p 66 74
p 66 82
p 66 98
p 66 194
p 67 68
p 67 71
p 67 75
p 67 83
p 67 99
p 67 195
p 68 72
p 68 76
p 68 84
p 68 100
p 68 196
p 69 70
p 69 71
p 69 77
p 69 85
p 69 101
p 69 197
p 70 72
p 70 78
p 70 86
p 70 102
p 70 198
p 71 72
p 71 79
p 71 87
p 71 103
p 71 199
p 72 80
p 72 88
p 72 104
p 72 200
p 73 74
p 73 75
p 73 77
p 73 89
p 73 105
p 73 201
p 74 76
p 74 78
p 74 90
p 74 106
p 74 202
p 75 76
p 75 79
p 75 91
p 75 107
p 75 203
p 76 80
p 76 92
p 76 108
p 76 204
p 77 78
p 77 79
p 77 93
p 77 109
p 77 205
p 78 80
p 78 94
p 78 110
p 78 206
p 79 80
p 79 95
p 79 111
p 79 207
p 80 96
p 80 112
p 80 208
p 81 82
p 81 83
p 81 85
p 81 89
p 81 113
p 81 209
p 82 84
p 82 86
p 82 90
p 82 114
p 82 210
p 83 84
p 83 87
p 83 91
p 83 115
p 83 211
p 84 88
p 84 92
p 84 116
p 84 212
p 85 86
p 85 87
p 85 93
p 85 117
p 85 213
p 86 88
p 86 94
p 86 118
p 86 214
p 87 88
p 87 95
p 87 119
p 87 215
p 88 96
p 88 120
p 88 216
p 89 90
p 89 91
p 89 93
p 89 121
p 89 217
p 90 92
p 90 94
p 90 122
p 90 218
p 91 92
p 91 95
p 91 123
p 91 219
p 92 96
p 92 124
p 92 220
p 93 94
p 93 95
p 93 125
p 93 221
p 94 96
p 94 126
p 94 222
p 95 96
p 95 127
p 95 223
p 96 128
p 96 224
p 97 98
p 97 99
p 97 101
p 97 105
p 97 113
p 97 225
p 98 100
p 98 102
p 98 106
p 98 114
p 98 226
p 99 100
p 99 103
p 99 107
p 99 115
p 99 227
p 100 104
p 100 108
p 100 116
p 100 228
p 101 102
p 101 103
p 101 109
p 101 117
p 101 229
p 102 104
p 102 110
p 102 118
p 102 230
p 103 104
p 103 111
p 103 119
p 103 231
p 104 112
p 104 120
p 104 232
p 105 106
p 105 107
p 105 109
p 105 121
p 105 233
p 106 108
p 106 110
p 106 122
p 106 234
p 107 108
p 107 111
p 107 123
p 107 235
p 108 112
p 108 124
p 108 236
p 109 110
p 109 111
p 109 125
p 109 237
p 110 112
p 110 126
p 110 238
p 111 112
p 111 127
p 111 239
p 112 128
p 112 240
p 113 114
p 113 115
p 113 117
p 113 121
p 113 241
p 114 116
p 114 118
p 114 122
p 114 242
p 115 116
p 115 119
p 115 123
p 115 243
p 116 120
p 116 124
p 116 244
p 117 118
p 117 119
p 117 125
p 117 245
p 118 120
p 118 126
p 118 246
p 119 120
p 119 127
p 119 247
p 120 128
p 120 248
p 121 122
p 121 123
p 121 125
p 121 249
p 122 124
p 122 126
p 122 250
p 123 124
p 123 127
p 123 251
p 124 128
p 124 252
p 125 126
p 125 127
p 125 253
p 126 128
p 126 254
p 127 128
p 127 255
p 128 256
p 129 130
p 129 131
p 129 133
p 129 137
p 129 145
p 129 161
p 129 193
p 130 132
p 130 134
p 130 138
p 130 146
p 130 162
p 130 194
p 131 132
p 131 135
p 131 139
p 131 147
p 131 163
p 131 195
p 132 136
p 132 140
p 132 148
p 132 164
p 132 196
p 133 134
p 133 135
p 133 141
p 133 149
p 133 165
p 133 197
p 134 136
p 134 142
p 134 150
p 134 166
p 134 198
p 135 136
p 135 143
p 135 151
p 135 167
p 135 199
p 136 144
p 136 152
p 136 168
p 136 200
p 137 138
p 137 139
p 137 141
p 137 153
p 137 169
p 137 201
p 138 140
p 138 142
p 138 154
p 138 170
p 138 202
p 139 140
p 139 143
p 139 155
p 139 171
p 139 203
p 140 144
p 140 156
p 140 172
p 140 204
p 141 142
p 141 143
p 141 157
p 141 173
p 141 205
p 142 144
p 142 158
p 142 174
p 142 206
p 143 144
p 143 159
p 143 175
p 143 207
p 144 160
p 144 176
p 144 208
p 145 146
p 145 147
p 145 149
p 145 153
p 145 177
p 145 209
p 146 148
p 146 150
p 146 154
p 146 178
p 146 210
p 147 148
p 147 151
p 147 155
p 147 179
p 147 211
p 148 152
p 148 156
p 148 180
p 148 212
p 149 150
p 149 151
p 149 157
p 149 181
p 149 213
p 150 152
p 150 158
p 150 182
p 150 214
p 151 152
p 151 159
p 151 183
p 151 215
p 152 160
p 152 184
p 152 216
p 153 154
p 153 155
p 153 157
p 153 185
p 153 217
p 154 156
p 154 158
p 154 186
p 154 218
p 155 156
p 155 159
p 155 187
p 155 219
p 156 160
p 156 188
p 156 220
p 157 158
p 157 159
p 157 189
p 157 221
p 158 160
p 158 190
p 158 222
p 159 160
p 159 191
p 159 223
p 160 192
p 160 224
p 161 162
p 161 163
p 161 165
p 161 169
p 161 177
p 161 225
p 162 164
p 162 166
p 162 170
p 162 178
p 162 226
p 163 164
p 163 167
p 163 171
p 163 179
p 163 227
p 164 168
p 164 172
p 164 180
p 164 228
p 165 166
p 165 167
p 165 173
p 165 181
p 165 229
p 166 168
p 166 174
p 166 182
p 166 230
p 167 168
p 167 175
p 167 183
p 167 231
p 168 176
p 168 184
p 168 232
p 169 170
p 169 171
p 169 173
p 169 185
p 169 233
p 170 172
p 170 174
p 170 186
p 170 234
p 171 172
p 171 175
p 171 187
p 171 235
p 172 176
p 172 188
p 172 236
p 173 174
p 173 175
p 173 189
p 173 237
p 174 176
p 174 190
p 174 238
p 175 176
p 175 191
p 175 239
p 176 192
p 176 240
p 177 178
p 177 179
p 177 181
p 177 185
p 177 241
p 178 180
p 178 182
p 178 186
p 178 242
p 179 180
p 179 183
p 179 187
p 179 243
p 180 184
p 180 188
p 180 244
p 181 182
p 181 183
p 181 189
p 181 245
p 182 184
p 182 190
p 182 246
p 183 184
p 183 191
p 183 247
p 184 192
p 184 248
p 185 186
p 185 187
p 185 189
p 185 249
p 186 188
p 186 190
p 186 250
p 187 188
p 187 191
p 187 251
p 188 192
p 188 252
p 189 190
p 189 191
p 189 253
p 190 192
p 190 254
p 191 192
p 191 255
p 192 256
p 193 194
p 193 195
p 193 197
p 193 201
p 193 209
p 193 225
p 194 196
p 194 198
p 194 202
p 194 210
p 194 226
p 195 196
p 195 199
p 195 203
p 195 211
p 195 227
p 196 200
p 196 204
p 196 212
p 196 228
p 197 198
p 197 199
p 197 205
p 197 213
p 197 229
p 198 200
p 198 206
p 198 214
p 198 230
p 199 200
p 199 207
p 199 215
p 199 231
p 200 208
p 200 216
p 200 232
p 201 202
p 201 203
p 201 205
p 201 217
p 201 233
p 202 204
p 202 206
p 202 218
p 202 234
p 203 204
p 203 207
p 203 219
p 203 235
p 204 208
p 204 220
p 204 236
p 205 206
p 205 207
p 205 221
p 205 237
p 206 208
p 206 222
p 206 238
p 207 208
p 207 223
p 207 239
p 208 224
p 208 240
p 209 210
p 209 211
p 209 213
p 209 217
p 209 241
p 210 212
p 210 214
p 210 218
p 210 242
p 211 212
p 211 215
p 211 219
p 211 243
p 212 216
p 212 220
p 212 244
p 213 214
p 213 215
p 213 221
p 213 245
p 214 216
p 214 222
p 214 246
p 215 216
p 215 223
p 215 247
p 216 224
p 216 248
p 217 218
p 217 219
p 217 221
p 217 249
p 218 220
p 218 222
p 218 250
p 219 220
p 219 223
p 219 251
p 220 224
p 220 252
p 221 222
p 221 223
p 221 253
p 222 224
p 222 254
p 223 224
p 223 255
p 224 256
p 225 226
p 225 227
p 225 229
p 225 233
p 225 241
p 226 228
p 226 230
p 226 234
p 226 242
p 227 228
p 227 231
p 227 235
p 227 243
p 228 232
p 228 236
p 228 244
p 229 230
p 229 231
p 229 237
p 229 245
p 230 232
p 230 238
p 230 246
p 231 232
p 231 239
p 231 247
p 232 240
p 232 248
p 233 234
p 233 235
p 233 237
p 233 249
p 234 236
p 234 238
p 234 250
p 235 236
p 235 239
p 235 251
p 236 240
p 236 252
p 237 238
p 237 239
p 237 253
p 238 240
p 238 254
p 239 240
p 239 255
p 240 256
p 241 242
p 241 243
p 241 245
p 241 249
p 242 244
p 242 246
p 242 250
p 243 244
p 243 247
p 243 251
p 244 248
p 244 252
p 245 246
p 245 247
p 245 253
p 246 248
p 246 254
p 247 248
p 247 255
p 248 256
p 249 250
p 249 251
p 249 253
p 250 252
p 250 254
p 251 252
p 251 255
p 252 256
p 253 254
p 253 255
p 254 256
p 255 256
